c This Formular is generated by mcnf
c
c    horn? no 
c    forced? no 
c    mixed sat? no 
c    clause length = 3 
c
p cnf 20  91 
 -15 -13 17 0
-19 -4 -16 0
-8 -18 -5 0
-10 -15 -18 0
-13 20 5 0
-19 -3 -16 0
16 -19 -14 0
17 12 -7 0
-1 -6 12 0
-12 -5 -20 0
-3 10 -15 0
15 -3 -6 0
20 -8 14 0
-2 14 7 0
-18 -19 11 0
-16 -20 -11 0
3 -14 -17 0
-6 16 -1 0
1 -2 -8 0
14 12 4 0
-5 9 15 0
%
0

57 46 26 95 66 30 20 85 35 25 4 67 19 46 55 71 12 50 10 44
